; benchmark generated from python API
(set-info :status unknown)
(declare-fun S_5 () Real)
(declare-fun S_0 () Real)
(declare-fun A_3 () Real)
(declare-fun A_5 () Real)
(declare-fun B () Real)
(declare-fun C () Real)
(declare-fun S_1 () Real)
(declare-fun A_0 () Real)
(declare-fun L_0 () Real)
(declare-fun S_4 () Real)
(declare-fun S_3 () Real)
(declare-fun S_2 () Real)
(declare-fun L0 () Real)
(declare-fun A_1 () Real)
(declare-fun A_2 () Real)
(declare-fun A_4 () Real)
(declare-fun L_1 () Real)
(assert
 (let ((?x1220 (* (- 1.0) S_0)))
 (let ((?x595 (* (- 1.0) A_5)))
 (let ((?x652 (* (- 1.0) B)))
 (let ((?x3402 (* (- 4.0) C)))
 (let (($x27263 (<= (+ (* (- 3.0) C) ?x652 ?x595 A_3 (* (- 1.0) S_1) S_5) 0.0)))
 (let (($x27525 (<= (+ L_0 (* (- 3.0) C) ?x652 ?x595 A_3 S_5 (* (- 1.0) A_0)) 0.0)))
 (let (($x42 (>= L0 0.0)))
 (let (($x754 (>= C 5.0)))
 (let (($x30924 (<= (+ L_0 (* (- 1.0) C) A_2 ?x652 ?x595 (* (- 1.0) A_1) S_5) 0.0)))
 (let (($x30154 (<= (+ (* (- 2.0) C) A_2 ?x652 ?x595 (* (- 1.0) S_1) S_5) 0.0)))
 (let (($x31006 (<= (+ L_0 (* (- 2.0) C) ?x652 ?x595 A_3 (* (- 1.0) A_1) S_5) 0.0)))
 (let ((?x326 (* (- 1.0) S_1)))
 (let ((?x599 (* (- 1.0) A_4)))
 (let ((?x2622 (* (- 3.0) C)))
 (let (($x30507 (<= (+ L_0 (* (- 2.0) C) A_2 ?x599 ?x652 (* (- 1.0) A_1) S_5) 0.0)))
 (let (($x30092 (<= (+ L_0 (* (- 2.0) C) A_2 ?x652 ?x595 S_5 (* (- 1.0) A_0)) 0.0)))
 (let (($x30905 (<= (+ (* (- 1.0) C) ?x652 ?x595 A_3 (* (- 1.0) S_3) S_5) 0.0)))
 (let (($x30732 (<= (+ (* (- 2.0) C) ?x652 ?x595 A_3 (* (- 1.0) S_2) S_5) 0.0)))
 (let ((?x618 (* (- 1.0) S_5)))
 (let ((?x607 (* (- 1.0) A_2)))
 (let ((?x712 (* (- 1.0) L_0)))
 (let (($x29061 (<= 0.0 (+ L_0 C (* (- 1.0) A_1) S_0))))
 (let (($x29843 (not $x29061)))
 (let (($x28312 (<= 0.0 (+ B A_1 ?x607 C))))
 (let (($x27382 (<= (+ A_4 ?x607 (* (- 2.0) C)) ?x652)))
 (let (($x26918 (not $x27382)))
 (let (($x34799 (or $x26918 $x28312 $x29843 (<= (+ ?x712 C ?x607 A_4 B A_1 ?x618) 0.0))))
 (let (($x28352 (not (<= 0.0 (+ ?x652 (* 2.0 C) S_4 ?x618)))))
 (let (($x999 (>= S_5 (+ A_4 (* (- 1.0) L_1)))))
 (let (($x52982 (or $x999 $x26918 (<= (+ (* 2.0 C) ?x607 A_4 B S_0 ?x618) 0.0) $x29061)))
 (let (($x28384 (<= (+ C S_3 ?x618) 0.0)))
 (let (($x53359 (or $x999 (<= (+ (* (- 1.0) C) ?x607 A_4 B S_3 ?x618) 0.0) $x28384)))
 (let (($x30353 (<= (+ (* (- 2.0) C) ?x599 ?x652 (* (- 1.0) S_2) A_2 S_5) 0.0)))
 (let (($x30348 (<= (+ (* (- 1.0) C) ?x599 ?x652 (* (- 1.0) S_3) A_2 S_5) 0.0)))
 (let (($x28829 (<= (+ (* 3.0 C) S_1 ?x618) 0.0)))
 (let (($x30097 (<= (+ (* (- 1.0) C) A_2 ?x652 ?x595 (* (- 1.0) S_2) S_5) 0.0)))
 (let (($x28879 (<= (+ ?x712 A_1 (* 3.0 C) ?x618) 0.0)))
 (let (($x27560 (<= (+ (* 2.0 C) S_2 ?x618) 0.0)))
 (let (($x27643 (<= (+ (* 4.0 C) S_0 ?x618) 0.0)))
 (let (($x27486 (<= (+ A_3 ?x607 (* (- 1.0) C)) 0.0)))
 (let (($x28338 (not (<= 0.0 (+ L_0 ?x652 (* (- 1.0) C) (* (- 1.0) A_1) S_4)))))
 (let (($x52823 (or (<= (+ (* 3.0 C) (* (- 1.0) S_4) S_0) 0.0) (<= (+ ?x712 (* (- 1.0) S_4) A_1 (* 2.0 C)) 0.0))))
 (let (($x53914 (or (<= (+ (* 2.0 C) (* (- 1.0) S_3) S_0) 0.0) (<= (+ ?x712 (* (- 1.0) S_3) A_1 C) 0.0))))
 (let (($x27175 (<= (+ A_4 (* (- 1.0) A_3) (* (- 1.0) C)) 0.0)))
 (let (($x28345 (not (<= 0.0 (+ L_0 ?x652 (* (- 2.0) C) S_4 (* (- 1.0) A_0))))))
 (let (($x52462 (or (<= (+ ?x712 (* (- 1.0) S_2) A_1) 0.0) (<= (+ C (* (- 1.0) S_2) S_0) 0.0))))
 (let (($x59 (= L_1 L_0)))
 (let (($x52594 (or $x59 (<= S_5 (+ A_4 ?x607 A_1 (* (- 1.0) L_1) (* 2.0 C))))))
 (let ((?x1299 (* 3.0 C)))
 (let ((?x578 (* (- 1.0) L_1)))
 (let ((?x26979 (+ A_1 ?x578 ?x652 ?x1299)))
 (let (($x27277 (>= S_5 ?x26979)))
 (let (($x53362 (or $x999 $x27277 (not (<= (+ A_2 (* (- 1.0) A_1) (* (- 1.0) C)) 0.0)))))
 (let (($x421 (<= (+ A_2 (* (- 1.0) A_1) (* (- 1.0) C)) 0.0)))
 (let (($x52792 (or $x59 (<= S_5 (+ A_5 (* (- 1.0) A_3) A_1 ?x578 (* 2.0 C))))))
 (let (($x140 (>= S_4 S_3)))
 (let (($x41 (>= L_0 L0)))
 (let (($x131 (>= S_1 S_0)))
 (let (($x134 (>= S_2 S_1)))
 (let (($x137 (>= S_3 S_2)))
 (let (($x143 (>= S_5 S_4)))
 (let (($x145 (>= A_1 A_0)))
 (let (($x147 (>= A_3 A_2)))
 (let (($x148 (>= A_4 A_3)))
 (let (($x149 (>= A_5 A_4)))
 (and (<= (+ A_1 ?x578) S_4) $x149 $x148 $x147 $x145 $x143 $x137 $x134 $x131 $x41 (>= S_2 (+ A_1 ?x578 ?x652)) (<= (+ ?x652 ?x578 A_1 (* (- 1.0) C)) (+ A_0 ?x712)) (>= S_0 (+ ?x652 ?x578 A_1 (* (- 2.0) C))) (>= S_1 (+ ?x652 ?x578 A_1 (* (- 1.0) C))) (>= S_4 (+ A_1 ?x578 ?x652 (* 2.0 C))) (or $x59 (not (<= L_1 L_0))) (or $x59 (<= S_2 (+ A_1 ?x578 ?x652 C))) (or $x59 (<= S_1 (+ A_1 ?x578 ?x652))) (or (not (= L_0 L_1)) (>= S_3 (+ A_1 ?x712 ?x652 C))) (>= S_3 (+ A_1 ?x578 ?x652 C)) (or $x59 (<= S_0 (+ ?x652 ?x578 A_1 (* (- 1.0) C)))) (or $x59 (not (<= (+ A_1 ?x578 C) S_4))) $x140 (or $x59 (<= S_3 (+ A_1 ?x578 ?x652 (* 2.0 C)))) (or $x59 (<= S_4 ?x26979)) (or $x27277 $x27486) (<= S_5 (+ A_5 ?x578)) (or $x27486 $x27560) (not (<= (+ A_2 ?x578) S_4)) $x52792 (or $x59 (<= S_5 (+ A_1 ?x578 ?x652 (* 4.0 C)))) (<= (+ (* (- 2.0) C) S_3 (* (- 1.0) S_2)) 0.0) (or $x421 (>= S_5 (+ A_4 ?x607 A_1 ?x578 C)) $x27277) $x53362 $x52594 (or $x27175 $x28352) (or $x27175 $x28384) (or $x59 (<= S_5 (+ A_5 ?x607 A_1 ?x578 C))) (<= (+ L_0 (* (- 1.0) C) S_1 (* (- 1.0) A_0)) 0.0) (or $x27175 $x28829) (<= (+ C (* (- 1.0) S_3) S_1) 0.0) (not (<= 0.0 (+ ?x652 C))) (not (<= 0.0 (+ ?x652 (* (- 1.0) C) S_4 (* (- 1.0) S_2)))) $x52462 (not (<= 0.0 (+ ?x652 (* (- 1.0) S_3) S_4))) (<= (+ L_0 (* (- 1.0) A_1) S_1) 0.0) $x28345 (or $x27175 $x27643 $x28879) $x53914 $x52823 (<= (+ L_0 S_3 (* (- 1.0) A_1) (* (- 2.0) C)) 0.0) (<= (+ L_0 S_2 (* (- 1.0) A_1) (* (- 1.0) C)) 0.0) $x28338 (or $x27486 $x28384) (or $x27486 $x28829) (<= (+ ?x2622 S_4 (* (- 1.0) S_2)) 0.0) (<= (+ L_0 S_4 (* (- 1.0) A_1) ?x2622) 0.0) (<= (+ (* (- 5.0) C) S_4 ?x1220) 0.0) (<= (+ L_0 ?x3402 S_4 (* (- 1.0) A_0)) 0.0) (<= (+ ?x3402 S_4 ?x326) 0.0) (<= (+ L_0 (* (- 1.0) A_1) ?x3402 S_5) 0.0) (<= (+ (* (- 6.0) C) ?x1220 S_5) 0.0) (<= (+ (* (- 5.0) C) ?x326 S_5) 0.0) (or $x27486 $x28352) (or $x27486 $x27643 $x29061) (or $x27486 $x28879 $x29843) (or $x999 (<= (+ ?x607 A_4 B S_2 ?x618) 0.0) $x27560) (<= S_5 (+ A_4 ?x578 C)) (or $x27382 $x28312 $x28879 $x29843) (or (>= S_5 (+ A_4 ?x712)) (not $x28312) $x28879 $x29843) $x30097 (<= (+ A_2 ?x652 ?x595 (* (- 1.0) S_3) S_5) 0.0) (or $x999 (<= (+ C ?x607 A_4 B S_1 ?x618) 0.0) $x28829) (or $x999 $x27382 $x27643 $x29061) $x30348 $x30353 (<= (+ ?x599 ?x652 (* (- 1.0) S_4) A_2 S_5) 0.0) $x53359 $x52982 (or (not (<= 0.0 (+ ?x607 A_4 S_4 ?x618))) $x28352) $x34799 (<= (+ C A_2 ?x652 ?x595 (* (- 1.0) S_4) S_5) 0.0) $x30732 $x30905 $x30092 $x30507 (<= (+ L_0 ?x2622 ?x599 ?x652 A_2 S_5 (* (- 1.0) A_0)) 0.0) (<= (+ ?x3402 ?x599 ?x652 A_2 ?x1220 S_5) 0.0) (<= (+ ?x2622 ?x599 ?x652 A_2 ?x326 S_5) 0.0) $x31006 (<= (+ ?x2622 A_2 ?x652 ?x595 ?x1220 S_5) 0.0) $x30154 $x30924 $x754 $x42 (<= (+ L_0 S_0 (* (- 1.0) A_0)) 0.0) (<= (+ ?x3402 (* (- 1.0) S_2) S_5) 0.0) (<= (+ ?x2622 (* (- 1.0) S_3) S_5) 0.0) (<= (+ (* (- 2.0) C) (* (- 1.0) S_4) S_5) 0.0) (<= (+ C (* (- 1.0) S_4) S_2) 0.0) (<= (+ L_0 (* (- 2.0) C) S_2 (* (- 1.0) A_0)) 0.0) (<= (+ L_0 ?x2622 S_3 (* (- 1.0) A_0)) 0.0) (<= (+ ?x2622 S_3 ?x326) 0.0) (<= (+ (* 2.0 C) (* (- 1.0) S_4) S_1) 0.0) (<= (+ (* (- 2.0) C) S_1 ?x1220) 0.0) (<= (+ ?x2622 S_2 ?x1220) 0.0) (<= (+ ?x3402 S_3 ?x1220) 0.0) (not (>= (+ ?x652 ?x2622 S_4 ?x1220) 0.0)) (not (>= (+ ?x652 (* (- 2.0) C) S_4 ?x326) 0.0)) (<= (+ (* (- 2.0) C) S_2 ?x326) 0.0) (<= (+ (* (- 2.0) C) (* (- 1.0) S_3) S_4) 0.0) (<= (+ L_0 (* (- 5.0) C) S_5 (* (- 1.0) A_0)) 0.0) (<= (+ ?x652 ?x595 A_3 (* (- 1.0) S_4) S_5) 0.0) $x27525 $x27263 (<= (+ ?x3402 ?x652 ?x595 A_3 ?x1220 S_5) 0.0))))))))))))))))))))))))))))))))))))))))))))))))))))))))))))))))))))
(check-sat)
